2,1,20,1,19,1,11,1,1,1,15,2,18,2,10,2,4,2,9,2,8,4,12,3,3,3,16,4,20,4,1,4,14,5,7,5;17,1,16,1,2,3,19,2,13,3,7,1,16,2,8,3,3,1,5,2,19,4,14,4,7,3,6,4,5,3,5,4,18,5,3,5;12,1,14,1,4,1,20,2,8,1,19,3,8,2,11,3,12,2,17,4,5,1,18,3,14,3,10,4,7,2,9,4,1,2,12,4,1,3,6,5,7,4,15,5;13,1,17,2,2,2,13,2,18,1,2,4,17,3,10,1,13,4,6,2,14,2,17,5,4,3,4,4,8,5,15,4,16,5,3,4,10,5,20,5;6,1,15,1,20,3,11,2,9,1,15,3,11,4,6,3,10,3,3,2,9,3,16,3,13,5,2,5,18,4,19,5,9,5,12,5,11,5,5,5,1,5,4,5;
